20	5
0	10	1	10	6	3	5	4	9	7	8	2
1	6	13	17	14	16	15	18
2	8	20	16	15	17	18	19	13	14
3	1	11
4	7	17	20	18	19	14	16	15
5	6	13	18	15	16	17	20
6	4	11	20	17	12
7	6	13	14	15	18	16	17
8	7	19	20	18	15	13	17	14
9	8	20	16	15	18	19	13	17	14
10	5	13	16	17	14	19
11	5	18	16	15	13	19
12	6	16	18	15	13	14	19
13	1	21
14	1	21
15	1	21
16	1	21
17	1	21
18	1	21
19	1	21
20	1	21
21	0
0	0	0	0	0	0	0
1	2	2	2	1	5	2
2	3	5	1	0	0	0
3	10	0	5	0	1	4
4	9	5	0	0	0	1
5	7	4	2	0	0	5
6	2	0	0	3	3	0
7	3	0	0	0	4	1
8	3	5	4	0	2	4
9	1	5	0	0	4	3
10	3	4	3	0	0	4
11	10	0	0	2	0	0
12	1	4	4	0	0	0
13	6	5	0	0	1	5
14	2	3	0	0	5	4
15	5	0	5	0	0	5
16	10	1	5	1	0	2
17	7	2	0	4	4	0
18	9	0	0	0	0	4
19	3	0	0	0	0	5
20	9	0	0	0	1	0
21	0	0	0	0	0	0
10	8	5	8	9
